TERM = { '.', s0, s3, s4, s5};
null = '.';
s = 4;
n = 3;
min = 4;
N0 = 0;
ZEROARYOP = {};
zeroout = [];
zerogas = [];
zerosz =  [];
zerolb =  [];
zeroub =  [];
N1 = 0;
UNARYOP = {};
unin =  [];
unout = [];
ungas = [];
unsz =  [];
unlb =  [];
unub =  [];
N2 = 1;
BINARYOP = { EQ_0 };
binin1 = [s5 ];
binin2 = [s0 ];
binout = [s4 ];
bincomm = [true ];
bingas = [3 ];
binsz = [1 ];
binlb = [ 1 ];
binub = [ 4 ];
NA = 0;
ASSOCIATIVEADDOP = {};
naddin =  [];
addin =  [||];
addout = [];
addcomm = [];
addgas = [];
addsz =  [];
addlb =  [];
addub =  [];
NPUSH = 2;
PUSHOP = { 'PUSH [tag]_0', PUSH_0 };
pushout = [ s3, s5 ];
pushgas = [ 3, 3 ];
pushsz = [ 3, 5 ];
pushlb = [ 1, 1 ];
pushub = [ 4, 4 ];
NSTORE = 0;
STOROP = {};
storin1 =  [];
storin2 =  [];
storlb =  [];
storub =  [];
storgas = [];
storsz = [];
DUP_ENUM = { DUP1, DUP2};
SWAP_ENUM = { SWAP1, SWAP2};
startstack = [ s0, null, null ];
endstack = [ s3, s4, s0 ];
m_dep_n = 0;
memory_dependences = [| |];
s_dep_n = 0;
store_dependences = [| |];
lib = false;
nlib = 0;
lib_elem = [| |];
lib_dis = [];
